32      4       
10      10      10      10      
0       0       0       0       0       2       2       4       
9       1       1       1       0       1       3       
4       5       7       0       1       2       5       7       
10      0       5       9       5       1       5       
9       7       5       0       6       2       6       11      
8       5       0       1       8       2       8       13      
1       4       6       3       0       2       9       13      
4       2       2       0       3       1       9       
4       5       0       2       2       1       10      
9       0       4       6       5       3       12      14      16      
1       5       0       4       4       4       14      15      16      18      
2       0       7       4       6       3       15      18      20      
7       0       5       4       3       1       15      
6       3       3       6       0       5       19      20      21      22      23      
8       2       0       2       3       2       17      23      
2       3       2       4       0       2       17      23      
5       4       7       0       5       4       19      21      22      25      
3       2       1       2       0       3       19      22      23      
1       0       3       4       2       3       24      26      31      
1       0       4       3       5       2       24      25      
1       0       3       3       3       2       24      26      
5       0       3       8       3       3       26      27      30      
7       3       0       7       4       1       25      
10      5       0       3       2       2       27      30      
7       7       0       5       3       2       26      30      
2       0       2       7       4       1       28      
7       4       4       3       0       1       28      
9       4       0       5       6       1       29      
1       5       4       4       0       1       32      
9       4       3       1       0       1       32      
2       0       7       3       5       1       32      
0       0       0       0       0       0       
